
  21    0


   0   9 2 3 4 7 8 17 18 19 20 
   5   7 16 15 14 13 12 6 5 
   6   2 11 9 
   2   1 5 
   6   1 9 
   9   1 10 
   6   1 10 
   7   1 9 
   1   1 21
   9   1 21
   5   1 21
   2   1 21
   3   1 21
   2   1 21
   2   1 21
  10   1 21
   5   1 21
   3   1 21
   4   1 21
   3   1 21
   0   0 
